Optimal - objective value 4021.00000000
      7 x_0_8                   1                     136
     25 x_1_9                   1                       0
     38 x_2_5                   1                     210
     64 x_3_14                  1                     437
     80 x_4_13                  1                      21
     95 x_5_11                  1                       0
    118 x_6_17                  1                     159
    122 x_7_3                   1                       0
    143 x_8_7                   1                      20
    159 x_9_6                   1                     142
    170 x_10_0                  1                     153
    188 x_11_1                  1                       0
    219 x_12_16                 1                       0
    235 x_13_15                 1                       0
    240 x_14_2                  1                       0
    267 x_15_12                 1                      83
    282 x_16_10                 1                       0
    293 x_17_4                  1                     -15
    306 u_1                     8                       0
    307 u_2                     5                       0
    308 u_3                     3                       0
    309 u_4                    12                       0
    310 u_5                     6                       0
    311 u_6                    10                       0
    312 u_7                     2                       0
    313 u_8                     1                       0
    314 u_9                     9                       0
    315 u_10                   17                       0
    316 u_11                    7                       0
    317 u_12                   15                       0
    318 u_13                   13                       0
    319 u_14                    4                       0
    320 u_15                   14                       0
    321 u_16                   16                       0
    322 u_17                   11                       0
